l = 4;
u = 6;
m = 2;

CLAN = { DC, C1,C2, C3, C4};

hates = [| 0, 0, 0, 0, 0 
         | 0, 0, 1, 0, 0
         | 0, 1, 0, 0, 1
         | 0, 0, 0, 0, 0
         | 0, 0, 1, 0, 0 |];

WARRIOR = { D, W1, W2, W3, W4, W5, W6, W7, W8, W9, W10 };
dummy = D;
strength = [ 0, 9, 6, 4, 10, 8, 3, 4, 2, 7, 1 ];
clan = [ DC, C1, C1, C1, C2, C2, C2, C3, C3, C4, C4 ];
